p cnf 24 39
-7 
8 
-9 
-10 
-11 
-12 
1 -2 3 4 5 6 
13 
2 -13 
14 -13 
13 -2 -14 
-1 14 
-15 14 
-14 1 15 
-1 -15 
1 15 
16 
17 -16 
18 -16 
16 -17 -18 
-6 -17 
6 17 
19 -18 
20 -18 
18 -19 -20 
-5 -19 
5 19 
21 -20 
22 -20 
20 -21 -22 
-4 -21 
4 21 
23 -22 
24 -22 
22 -23 -24 
-3 -23 
3 23 
-1 -24 
1 24 
